\ENCODING=ISO-8859-1
\Problem name: IloCplex

Minimize
 FO: x1#0
Subject To
 c1:   x(0,0,0)#1  = 1
 c2:   x(0,1,0)#2  = 1
 c3:   x(0,2,0)#3  = 1
 c4:   x(0,3,0)#4  = 1
 c5:   x(1,0,0)#5  = 1
 c6:   x(1,1,0)#6  = 1
 c7:   x(1,2,0)#7  = 1
 c8:   x(1,3,0)#8  = 1
 c9:   x(2,0,0)#9  = 1
 c10:  x(2,1,0)#10  = 1
 c11:  x(2,2,0)#11  = 1
 c12:  x(2,3,0)#12  = 1
 c13:  x(3,0,0)#13  = 1
 c14:  x(3,1,0)#14  = 1
 c15:  x(3,2,0)#15  = 1
 c16:  x(3,3,0)#16  = 1
 c17:  x(0,0,0)#1 + x(0,1,0)#2 + x(0,2,0)#3 + x(0,3,0)#4  = 4
 c18:  x(1,0,0)#5 + x(1,1,0)#6 + x(1,2,0)#7 + x(1,3,0)#8  = 4
 c19:  x(2,0,0)#9 + x(2,1,0)#10 + x(2,2,0)#11 + x(2,3,0)#12  = 4
 c20:  x(3,0,0)#13 + x(3,1,0)#14 + x(3,2,0)#15 + x(3,3,0)#16  = 4
 c21:  x(0,0,0)#1 + x(1,0,0)#5 + x(2,0,0)#9 + x(3,0,0)#13  = 4
 c22:  x(0,1,0)#2 + x(1,1,0)#6 + x(2,1,0)#10 + x(3,1,0)#14  = 4
 c23:  x(0,2,0)#3 + x(1,2,0)#7 + x(2,2,0)#11 + x(3,2,0)#15  = 4
 c24:  x(0,3,0)#4 + x(1,3,0)#8 + x(2,3,0)#12 + x(3,3,0)#16  = 4
 c25:  - s(0,0)#17 - 1000000 a(0,0,1)#18 + s(0,1)#19 >= -999969.1
 c26:  s(0,0)#17 + 1000000 a(0,0,1)#18 - s(0,1)#19 >= 35.4
 c27:  - s(0,0)#17 - 1000000 a(0,0,2)#20 + s(0,2)#21 >= -999969.1
 c28:  s(0,0)#17 + 1000000 a(0,0,2)#20 - s(0,2)#21 >= 1
 c29:  - s(0,0)#17 - 1000000 a(0,0,3)#22 + s(0,3)#23 >= -999969.1
 c30:  s(0,0)#17 + 1000000 a(0,0,3)#22 - s(0,3)#23 >= 30.7
 c31:  s(0,0)#17 - s(0,1)#19 - 1000000 a(0,1,0)#24 >= -999964.6
 c32:  - s(0,0)#17 + s(0,1)#19 + 1000000 a(0,1,0)#24 >= 30.9
 c33:  - s(0,1)#19 + s(0,2)#21 - 1000000 a(0,1,2)#25 >= -999964.6
 c34:  s(0,1)#19 - s(0,2)#21 + 1000000 a(0,1,2)#25 >= 1
 c35:  - s(0,1)#19 + s(0,3)#23 - 1000000 a(0,1,3)#26 >= -999964.6
 c36:  s(0,1)#19 - s(0,3)#23 + 1000000 a(0,1,3)#26 >= 30.7
 c37:  s(0,0)#17 - s(0,2)#21 - 1000000 a(0,2,0)#27 >= -999999
 c38:  - s(0,0)#17 + s(0,2)#21 + 1000000 a(0,2,0)#27 >= 30.9
 c39:  s(0,1)#19 - s(0,2)#21 - 1000000 a(0,2,1)#28 >= -999999
 c40:  - s(0,1)#19 + s(0,2)#21 + 1000000 a(0,2,1)#28 >= 35.4
 c41:  - s(0,2)#21 + s(0,3)#23 - 1000000 a(0,2,3)#29 >= -999999
 c42:  s(0,2)#21 - s(0,3)#23 + 1000000 a(0,2,3)#29 >= 30.7
 c43:  s(0,0)#17 - s(0,3)#23 - 1000000 a(0,3,0)#30 >= -999969.3
 c44:  - s(0,0)#17 + s(0,3)#23 + 1000000 a(0,3,0)#30 >= 30.9
 c45:  s(0,1)#19 - s(0,3)#23 - 1000000 a(0,3,1)#31 >= -999969.3
 c46:  - s(0,1)#19 + s(0,3)#23 + 1000000 a(0,3,1)#31 >= 35.4
 c47:  s(0,2)#21 - s(0,3)#23 - 1000000 a(0,3,2)#32 >= -999969.3
 c48:  - s(0,2)#21 + s(0,3)#23 + 1000000 a(0,3,2)#32 >= 1
 c49:  - s(1,0)#33 - 1000000 a(1,0,1)#34 + s(1,1)#35 >= -999974.6
 c50:  s(1,0)#33 + 1000000 a(1,0,1)#34 - s(1,1)#35 >= 35.7
 c51:  - s(1,0)#33 - 1000000 a(1,0,2)#36 + s(1,2)#37 >= -999974.6
 c52:  s(1,0)#33 + 1000000 a(1,0,2)#36 - s(1,2)#37 >= 19.7
 c53:  - s(1,0)#33 - 1000000 a(1,0,3)#38 + s(1,3)#39 >= -999974.6
 c54:  s(1,0)#33 + 1000000 a(1,0,3)#38 - s(1,3)#39 >= 14.5
 c55:  s(1,0)#33 - s(1,1)#35 - 1000000 a(1,1,0)#40 >= -999964.3
 c56:  - s(1,0)#33 + s(1,1)#35 + 1000000 a(1,1,0)#40 >= 25.4
 c57:  - s(1,1)#35 + s(1,2)#37 - 1000000 a(1,1,2)#41 >= -999964.3
 c58:  s(1,1)#35 - s(1,2)#37 + 1000000 a(1,1,2)#41 >= 19.7
 c59:  - s(1,1)#35 + s(1,3)#39 - 1000000 a(1,1,3)#42 >= -999964.3
 c60:  s(1,1)#35 - s(1,3)#39 + 1000000 a(1,1,3)#42 >= 14.5
 c61:  s(1,0)#33 - s(1,2)#37 - 1000000 a(1,2,0)#43 >= -999980.3
 c62:  - s(1,0)#33 + s(1,2)#37 + 1000000 a(1,2,0)#43 >= 25.4
 c63:  s(1,1)#35 - s(1,2)#37 - 1000000 a(1,2,1)#44 >= -999980.3
 c64:  - s(1,1)#35 + s(1,2)#37 + 1000000 a(1,2,1)#44 >= 35.7
 c65:  - s(1,2)#37 + s(1,3)#39 - 1000000 a(1,2,3)#45 >= -999980.3
 c66:  s(1,2)#37 - s(1,3)#39 + 1000000 a(1,2,3)#45 >= 14.5
 c67:  s(1,0)#33 - s(1,3)#39 - 1000000 a(1,3,0)#46 >= -999985.5
 c68:  - s(1,0)#33 + s(1,3)#39 + 1000000 a(1,3,0)#46 >= 25.4
 c69:  s(1,1)#35 - s(1,3)#39 - 1000000 a(1,3,1)#47 >= -999985.5
 c70:  - s(1,1)#35 + s(1,3)#39 + 1000000 a(1,3,1)#47 >= 35.7
 c71:  s(1,2)#37 - s(1,3)#39 - 1000000 a(1,3,2)#48 >= -999985.5
 c72:  - s(1,2)#37 + s(1,3)#39 + 1000000 a(1,3,2)#48 >= 19.7
 c73:  - s(2,0)#49 - 1000000 a(2,0,1)#50 + s(2,1)#51 >= -999979.9
 c74:  s(2,0)#49 + 1000000 a(2,0,1)#50 - s(2,1)#51 >= 10
 c75:  - s(2,0)#49 - 1000000 a(2,0,2)#52 + s(2,2)#53 >= -999979.9
 c76:  s(2,0)#49 + 1000000 a(2,0,2)#52 - s(2,2)#53 >= 31.9
 c77:  - s(2,0)#49 - 1000000 a(2,0,3)#54 + s(2,3)#55 >= -999979.9
 c78:  s(2,0)#49 + 1000000 a(2,0,3)#54 - s(2,3)#55 >= 33.4
 c79:  s(2,0)#49 - s(2,1)#51 - 1000000 a(2,1,0)#56 >= -999990
 c80:  - s(2,0)#49 + s(2,1)#51 + 1000000 a(2,1,0)#56 >= 20.1
 c81:  - s(2,1)#51 + s(2,2)#53 - 1000000 a(2,1,2)#57 >= -999990
 c82:  s(2,1)#51 - s(2,2)#53 + 1000000 a(2,1,2)#57 >= 31.9
 c83:  - s(2,1)#51 + s(2,3)#55 - 1000000 a(2,1,3)#58 >= -999990
 c84:  s(2,1)#51 - s(2,3)#55 + 1000000 a(2,1,3)#58 >= 33.4
 c85:  s(2,0)#49 - s(2,2)#53 - 1000000 a(2,2,0)#59 >= -999968.1
 c86:  - s(2,0)#49 + s(2,2)#53 + 1000000 a(2,2,0)#59 >= 20.1
 c87:  s(2,1)#51 - s(2,2)#53 - 1000000 a(2,2,1)#60 >= -999968.1
 c88:  - s(2,1)#51 + s(2,2)#53 + 1000000 a(2,2,1)#60 >= 10
 c89:  - s(2,2)#53 + s(2,3)#55 - 1000000 a(2,2,3)#61 >= -999968.1
 c90:  s(2,2)#53 - s(2,3)#55 + 1000000 a(2,2,3)#61 >= 33.4
 c91:  s(2,0)#49 - s(2,3)#55 - 1000000 a(2,3,0)#62 >= -999966.6
 c92:  - s(2,0)#49 + s(2,3)#55 + 1000000 a(2,3,0)#62 >= 20.1
 c93:  s(2,1)#51 - s(2,3)#55 - 1000000 a(2,3,1)#63 >= -999966.6
 c94:  - s(2,1)#51 + s(2,3)#55 + 1000000 a(2,3,1)#63 >= 10
 c95:  s(2,2)#53 - s(2,3)#55 - 1000000 a(2,3,2)#64 >= -999966.6
 c96:  - s(2,2)#53 + s(2,3)#55 + 1000000 a(2,3,2)#64 >= 31.9
 c97:  - s(3,0)#65 - 1000000 a(3,0,1)#66 + s(3,1)#67 >= -999976.4
 c98:  s(3,0)#65 + 1000000 a(3,0,1)#66 - s(3,1)#67 >= 17.2
 c99:  - s(3,0)#65 - 1000000 a(3,0,2)#68 + s(3,2)#69 >= -999976.4
 c100: s(3,0)#65 + 1000000 a(3,0,2)#68 - s(3,2)#69 >= 46.4
 c101: - s(3,0)#65 - 1000000 a(3,0,3)#70 + s(3,3)#71 >= -999976.4
 c102: s(3,0)#65 + 1000000 a(3,0,3)#70 - s(3,3)#71 >= 11.4
 c103: s(3,0)#65 - s(3,1)#67 - 1000000 a(3,1,0)#72 >= -999982.8
 c104: - s(3,0)#65 + s(3,1)#67 + 1000000 a(3,1,0)#72 >= 23.6
 c105: - s(3,1)#67 + s(3,2)#69 - 1000000 a(3,1,2)#73 >= -999982.8
 c106: s(3,1)#67 - s(3,2)#69 + 1000000 a(3,1,2)#73 >= 46.4
 c107: - s(3,1)#67 + s(3,3)#71 - 1000000 a(3,1,3)#74 >= -999982.8
 c108: s(3,1)#67 - s(3,3)#71 + 1000000 a(3,1,3)#74 >= 11.4
 c109: s(3,0)#65 - s(3,2)#69 - 1000000 a(3,2,0)#75 >= -999953.6
 c110: - s(3,0)#65 + s(3,2)#69 + 1000000 a(3,2,0)#75 >= 23.6
 c111: s(3,1)#67 - s(3,2)#69 - 1000000 a(3,2,1)#76 >= -999953.6
 c112: - s(3,1)#67 + s(3,2)#69 + 1000000 a(3,2,1)#76 >= 17.2
 c113: - s(3,2)#69 + s(3,3)#71 - 1000000 a(3,2,3)#77 >= -999953.6
 c114: s(3,2)#69 - s(3,3)#71 + 1000000 a(3,2,3)#77 >= 11.4
 c115: s(3,0)#65 - s(3,3)#71 - 1000000 a(3,3,0)#78 >= -999988.6
 c116: - s(3,0)#65 + s(3,3)#71 + 1000000 a(3,3,0)#78 >= 23.6
 c117: s(3,1)#67 - s(3,3)#71 - 1000000 a(3,3,1)#79 >= -999988.6
 c118: - s(3,1)#67 + s(3,3)#71 + 1000000 a(3,3,1)#79 >= 17.2
 c119: s(3,2)#69 - s(3,3)#71 - 1000000 a(3,3,2)#80 >= -999988.6
 c120: - s(3,2)#69 + s(3,3)#71 + 1000000 a(3,3,2)#80 >= 46.4
 c121: - 1000000 b(0,0,0,_0)#81 - 1000000 x(0,0,0,_0)#82 >= -1999969.1
 c122: 1000000 b(0,0,0,_0)#81 - 1000000 x(0,0,0,_0)#82 >= -999969.1
 c123: - 1000000 b(0,0,1,_0)#83 - 1000000 x(0,0,1,_0)#84 >= -1999964.6
 c124: 1000000 b(0,0,1,_0)#83 - 1000000 x(0,0,1,_0)#84 >= -999964.6
 c125: - 1000000 b(0,0,2,_0)#85 - 1000000 x(0,0,2,_0)#86 >= -1999999
 c126: 1000000 b(0,0,2,_0)#85 - 1000000 x(0,0,2,_0)#86 >= -999999
 c127: - 1000000 b(0,0,3,_0)#87 - 1000000 x(0,0,3,_0)#88 >= -1999969.3
 c128: 1000000 b(0,0,3,_0)#87 - 1000000 x(0,0,3,_0)#88 >= -999969.3
 c129: - s(0,0)#17 + s(1,0)#33 - 1000000 b(0,1,0,_0)#89
       - 1000000 x(0,1,0,_0)#90 >= -1999969.1
 c130: s(0,0)#17 - s(1,0)#33 + 1000000 b(0,1,0,_0)#89 - 1000000 x(0,1,0,_0)#90
       >= -999974.6
 c131: - s(0,1)#19 + s(1,1)#35 - 1000000 b(0,1,1,_0)#91
       - 1000000 x(0,1,1,_0)#92 >= -1999964.6
 c132: s(0,1)#19 - s(1,1)#35 + 1000000 b(0,1,1,_0)#91 - 1000000 x(0,1,1,_0)#92
       >= -999964.3
 c133: - s(0,2)#21 + s(1,2)#37 - 1000000 b(0,1,2,_0)#93
       - 1000000 x(0,1,2,_0)#94 >= -1999999
 c134: s(0,2)#21 - s(1,2)#37 + 1000000 b(0,1,2,_0)#93 - 1000000 x(0,1,2,_0)#94
       >= -999980.3
 c135: - s(0,3)#23 + s(1,3)#39 - 1000000 b(0,1,3,_0)#95
       - 1000000 x(0,1,3,_0)#96 >= -1999969.3
 c136: s(0,3)#23 - s(1,3)#39 + 1000000 b(0,1,3,_0)#95 - 1000000 x(0,1,3,_0)#96
       >= -999985.5
 c137: - s(0,0)#17 + s(2,0)#49 - 1000000 b(0,2,0,_0)#97
       - 1000000 x(0,2,0,_0)#98 >= -1999969.1
 c138: s(0,0)#17 - s(2,0)#49 + 1000000 b(0,2,0,_0)#97 - 1000000 x(0,2,0,_0)#98
       >= -999979.9
 c139: - s(0,1)#19 + s(2,1)#51 - 1000000 b(0,2,1,_0)#99
       - 1000000 x(0,2,1,_0)#100 >= -1999964.6
 c140: s(0,1)#19 - s(2,1)#51 + 1000000 b(0,2,1,_0)#99 - 1000000 x(0,2,1,_0)#100
       >= -999990
 c141: - s(0,2)#21 + s(2,2)#53 - 1000000 b(0,2,2,_0)#101
       - 1000000 x(0,2,2,_0)#102 >= -1999999
 c142: s(0,2)#21 - s(2,2)#53 + 1000000 b(0,2,2,_0)#101
       - 1000000 x(0,2,2,_0)#102 >= -999968.1
 c143: - s(0,3)#23 + s(2,3)#55 - 1000000 b(0,2,3,_0)#103
       - 1000000 x(0,2,3,_0)#104 >= -1999969.3
 c144: s(0,3)#23 - s(2,3)#55 + 1000000 b(0,2,3,_0)#103
       - 1000000 x(0,2,3,_0)#104 >= -999966.6
 c145: - s(0,0)#17 + s(3,0)#65 - 1000000 b(0,3,0,_0)#105
       - 1000000 x(0,3,0,_0)#106 >= -1999969.1
 c146: s(0,0)#17 - s(3,0)#65 + 1000000 b(0,3,0,_0)#105
       - 1000000 x(0,3,0,_0)#106 >= -999976.4
 c147: - s(0,1)#19 + s(3,1)#67 - 1000000 b(0,3,1,_0)#107
       - 1000000 x(0,3,1,_0)#108 >= -1999964.6
 c148: s(0,1)#19 - s(3,1)#67 + 1000000 b(0,3,1,_0)#107
       - 1000000 x(0,3,1,_0)#108 >= -999982.8
 c149: - s(0,2)#21 + s(3,2)#69 - 1000000 b(0,3,2,_0)#109
       - 1000000 x(0,3,2,_0)#110 >= -1999999
 c150: s(0,2)#21 - s(3,2)#69 + 1000000 b(0,3,2,_0)#109
       - 1000000 x(0,3,2,_0)#110 >= -999953.6
 c151: - s(0,3)#23 + s(3,3)#71 - 1000000 b(0,3,3,_0)#111
       - 1000000 x(0,3,3,_0)#112 >= -1999969.3
 c152: s(0,3)#23 - s(3,3)#71 + 1000000 b(0,3,3,_0)#111
       - 1000000 x(0,3,3,_0)#112 >= -999988.6
 c153: s(0,0)#17 - s(1,0)#33 - 1000000 b(1,0,0,_0)#113
       - 1000000 x(1,0,0,_0)#114 >= -1999974.6
 c154: - s(0,0)#17 + s(1,0)#33 + 1000000 b(1,0,0,_0)#113
       - 1000000 x(1,0,0,_0)#114 >= -999969.1
 c155: s(0,1)#19 - s(1,1)#35 - 1000000 b(1,0,1,_0)#115
       - 1000000 x(1,0,1,_0)#116 >= -1999964.3
 c156: - s(0,1)#19 + s(1,1)#35 + 1000000 b(1,0,1,_0)#115
       - 1000000 x(1,0,1,_0)#116 >= -999964.6
 c157: s(0,2)#21 - s(1,2)#37 - 1000000 b(1,0,2,_0)#117
       - 1000000 x(1,0,2,_0)#118 >= -1999980.3
 c158: - s(0,2)#21 + s(1,2)#37 + 1000000 b(1,0,2,_0)#117
       - 1000000 x(1,0,2,_0)#118 >= -999999
 c159: s(0,3)#23 - s(1,3)#39 - 1000000 b(1,0,3,_0)#119
       - 1000000 x(1,0,3,_0)#120 >= -1999985.5
 c160: - s(0,3)#23 + s(1,3)#39 + 1000000 b(1,0,3,_0)#119
       - 1000000 x(1,0,3,_0)#120 >= -999969.3
 c161: - 1000000 b(1,1,0,_0)#121 - 1000000 x(1,1,0,_0)#122 >= -1999974.6
 c162: 1000000 b(1,1,0,_0)#121 - 1000000 x(1,1,0,_0)#122 >= -999974.6
 c163: - 1000000 b(1,1,1,_0)#123 - 1000000 x(1,1,1,_0)#124 >= -1999964.3
 c164: 1000000 b(1,1,1,_0)#123 - 1000000 x(1,1,1,_0)#124 >= -999964.3
 c165: - 1000000 b(1,1,2,_0)#125 - 1000000 x(1,1,2,_0)#126 >= -1999980.3
 c166: 1000000 b(1,1,2,_0)#125 - 1000000 x(1,1,2,_0)#126 >= -999980.3
 c167: - 1000000 b(1,1,3,_0)#127 - 1000000 x(1,1,3,_0)#128 >= -1999985.5
 c168: 1000000 b(1,1,3,_0)#127 - 1000000 x(1,1,3,_0)#128 >= -999985.5
 c169: - s(1,0)#33 + s(2,0)#49 - 1000000 b(1,2,0,_0)#129
       - 1000000 x(1,2,0,_0)#130 >= -1999974.6
 c170: s(1,0)#33 - s(2,0)#49 + 1000000 b(1,2,0,_0)#129
       - 1000000 x(1,2,0,_0)#130 >= -999979.9
 c171: - s(1,1)#35 + s(2,1)#51 - 1000000 b(1,2,1,_0)#131
       - 1000000 x(1,2,1,_0)#132 >= -1999964.3
 c172: s(1,1)#35 - s(2,1)#51 + 1000000 b(1,2,1,_0)#131
       - 1000000 x(1,2,1,_0)#132 >= -999990
 c173: - s(1,2)#37 + s(2,2)#53 - 1000000 b(1,2,2,_0)#133
       - 1000000 x(1,2,2,_0)#134 >= -1999980.3
 c174: s(1,2)#37 - s(2,2)#53 + 1000000 b(1,2,2,_0)#133
       - 1000000 x(1,2,2,_0)#134 >= -999968.1
 c175: - s(1,3)#39 + s(2,3)#55 - 1000000 b(1,2,3,_0)#135
       - 1000000 x(1,2,3,_0)#136 >= -1999985.5
 c176: s(1,3)#39 - s(2,3)#55 + 1000000 b(1,2,3,_0)#135
       - 1000000 x(1,2,3,_0)#136 >= -999966.6
 c177: - s(1,0)#33 + s(3,0)#65 - 1000000 b(1,3,0,_0)#137
       - 1000000 x(1,3,0,_0)#138 >= -1999974.6
 c178: s(1,0)#33 - s(3,0)#65 + 1000000 b(1,3,0,_0)#137
       - 1000000 x(1,3,0,_0)#138 >= -999976.4
 c179: - s(1,1)#35 + s(3,1)#67 - 1000000 b(1,3,1,_0)#139
       - 1000000 x(1,3,1,_0)#140 >= -1999964.3
 c180: s(1,1)#35 - s(3,1)#67 + 1000000 b(1,3,1,_0)#139
       - 1000000 x(1,3,1,_0)#140 >= -999982.8
 c181: - s(1,2)#37 + s(3,2)#69 - 1000000 b(1,3,2,_0)#141
       - 1000000 x(1,3,2,_0)#142 >= -1999980.3
 c182: s(1,2)#37 - s(3,2)#69 + 1000000 b(1,3,2,_0)#141
       - 1000000 x(1,3,2,_0)#142 >= -999953.6
 c183: - s(1,3)#39 + s(3,3)#71 - 1000000 b(1,3,3,_0)#143
       - 1000000 x(1,3,3,_0)#144 >= -1999985.5
 c184: s(1,3)#39 - s(3,3)#71 + 1000000 b(1,3,3,_0)#143
       - 1000000 x(1,3,3,_0)#144 >= -999988.6
 c185: s(0,0)#17 - s(2,0)#49 - 1000000 b(2,0,0,_0)#145
       - 1000000 x(2,0,0,_0)#146 >= -1999979.9
 c186: - s(0,0)#17 + s(2,0)#49 + 1000000 b(2,0,0,_0)#145
       - 1000000 x(2,0,0,_0)#146 >= -999969.1
 c187: s(0,1)#19 - s(2,1)#51 - 1000000 b(2,0,1,_0)#147
       - 1000000 x(2,0,1,_0)#148 >= -1999990
 c188: - s(0,1)#19 + s(2,1)#51 + 1000000 b(2,0,1,_0)#147
       - 1000000 x(2,0,1,_0)#148 >= -999964.6
 c189: s(0,2)#21 - s(2,2)#53 - 1000000 b(2,0,2,_0)#149
       - 1000000 x(2,0,2,_0)#150 >= -1999968.1
 c190: - s(0,2)#21 + s(2,2)#53 + 1000000 b(2,0,2,_0)#149
       - 1000000 x(2,0,2,_0)#150 >= -999999
 c191: s(0,3)#23 - s(2,3)#55 - 1000000 b(2,0,3,_0)#151
       - 1000000 x(2,0,3,_0)#152 >= -1999966.6
 c192: - s(0,3)#23 + s(2,3)#55 + 1000000 b(2,0,3,_0)#151
       - 1000000 x(2,0,3,_0)#152 >= -999969.3
 c193: s(1,0)#33 - s(2,0)#49 - 1000000 b(2,1,0,_0)#153
       - 1000000 x(2,1,0,_0)#154 >= -1999979.9
 c194: - s(1,0)#33 + s(2,0)#49 + 1000000 b(2,1,0,_0)#153
       - 1000000 x(2,1,0,_0)#154 >= -999974.6
 c195: s(1,1)#35 - s(2,1)#51 - 1000000 b(2,1,1,_0)#155
       - 1000000 x(2,1,1,_0)#156 >= -1999990
 c196: - s(1,1)#35 + s(2,1)#51 + 1000000 b(2,1,1,_0)#155
       - 1000000 x(2,1,1,_0)#156 >= -999964.3
 c197: s(1,2)#37 - s(2,2)#53 - 1000000 b(2,1,2,_0)#157
       - 1000000 x(2,1,2,_0)#158 >= -1999968.1
 c198: - s(1,2)#37 + s(2,2)#53 + 1000000 b(2,1,2,_0)#157
       - 1000000 x(2,1,2,_0)#158 >= -999980.3
 c199: s(1,3)#39 - s(2,3)#55 - 1000000 b(2,1,3,_0)#159
       - 1000000 x(2,1,3,_0)#160 >= -1999966.6
 c200: - s(1,3)#39 + s(2,3)#55 + 1000000 b(2,1,3,_0)#159
       - 1000000 x(2,1,3,_0)#160 >= -999985.5
 c201: - 1000000 b(2,2,0,_0)#161 - 1000000 x(2,2,0,_0)#162 >= -1999979.9
 c202: 1000000 b(2,2,0,_0)#161 - 1000000 x(2,2,0,_0)#162 >= -999979.9
 c203: - 1000000 b(2,2,1,_0)#163 - 1000000 x(2,2,1,_0)#164 >= -1999990
 c204: 1000000 b(2,2,1,_0)#163 - 1000000 x(2,2,1,_0)#164 >= -999990
 c205: - 1000000 b(2,2,2,_0)#165 - 1000000 x(2,2,2,_0)#166 >= -1999968.1
 c206: 1000000 b(2,2,2,_0)#165 - 1000000 x(2,2,2,_0)#166 >= -999968.1
 c207: - 1000000 b(2,2,3,_0)#167 - 1000000 x(2,2,3,_0)#168 >= -1999966.6
 c208: 1000000 b(2,2,3,_0)#167 - 1000000 x(2,2,3,_0)#168 >= -999966.6
 c209: - s(2,0)#49 + s(3,0)#65 - 1000000 b(2,3,0,_0)#169
       - 1000000 x(2,3,0,_0)#170 >= -1999979.9
 c210: s(2,0)#49 - s(3,0)#65 + 1000000 b(2,3,0,_0)#169
       - 1000000 x(2,3,0,_0)#170 >= -999976.4
 c211: - s(2,1)#51 + s(3,1)#67 - 1000000 b(2,3,1,_0)#171
       - 1000000 x(2,3,1,_0)#172 >= -1999990
 c212: s(2,1)#51 - s(3,1)#67 + 1000000 b(2,3,1,_0)#171
       - 1000000 x(2,3,1,_0)#172 >= -999982.8
 c213: - s(2,2)#53 + s(3,2)#69 - 1000000 b(2,3,2,_0)#173
       - 1000000 x(2,3,2,_0)#174 >= -1999968.1
 c214: s(2,2)#53 - s(3,2)#69 + 1000000 b(2,3,2,_0)#173
       - 1000000 x(2,3,2,_0)#174 >= -999953.6
 c215: - s(2,3)#55 + s(3,3)#71 - 1000000 b(2,3,3,_0)#175
       - 1000000 x(2,3,3,_0)#176 >= -1999966.6
 c216: s(2,3)#55 - s(3,3)#71 + 1000000 b(2,3,3,_0)#175
       - 1000000 x(2,3,3,_0)#176 >= -999988.6
 c217: s(0,0)#17 - s(3,0)#65 - 1000000 b(3,0,0,_0)#177
       - 1000000 x(3,0,0,_0)#178 >= -1999976.4
 c218: - s(0,0)#17 + s(3,0)#65 + 1000000 b(3,0,0,_0)#177
       - 1000000 x(3,0,0,_0)#178 >= -999969.1
 c219: s(0,1)#19 - s(3,1)#67 - 1000000 b(3,0,1,_0)#179
       - 1000000 x(3,0,1,_0)#180 >= -1999982.8
 c220: - s(0,1)#19 + s(3,1)#67 + 1000000 b(3,0,1,_0)#179
       - 1000000 x(3,0,1,_0)#180 >= -999964.6
 c221: s(0,2)#21 - s(3,2)#69 - 1000000 b(3,0,2,_0)#181
       - 1000000 x(3,0,2,_0)#182 >= -1999953.6
 c222: - s(0,2)#21 + s(3,2)#69 + 1000000 b(3,0,2,_0)#181
       - 1000000 x(3,0,2,_0)#182 >= -999999
 c223: s(0,3)#23 - s(3,3)#71 - 1000000 b(3,0,3,_0)#183
       - 1000000 x(3,0,3,_0)#184 >= -1999988.6
 c224: - s(0,3)#23 + s(3,3)#71 + 1000000 b(3,0,3,_0)#183
       - 1000000 x(3,0,3,_0)#184 >= -999969.3
 c225: s(1,0)#33 - s(3,0)#65 - 1000000 b(3,1,0,_0)#185
       - 1000000 x(3,1,0,_0)#186 >= -1999976.4
 c226: - s(1,0)#33 + s(3,0)#65 + 1000000 b(3,1,0,_0)#185
       - 1000000 x(3,1,0,_0)#186 >= -999974.6
 c227: s(1,1)#35 - s(3,1)#67 - 1000000 b(3,1,1,_0)#187
       - 1000000 x(3,1,1,_0)#188 >= -1999982.8
 c228: - s(1,1)#35 + s(3,1)#67 + 1000000 b(3,1,1,_0)#187
       - 1000000 x(3,1,1,_0)#188 >= -999964.3
 c229: s(1,2)#37 - s(3,2)#69 - 1000000 b(3,1,2,_0)#189
       - 1000000 x(3,1,2,_0)#190 >= -1999953.6
 c230: - s(1,2)#37 + s(3,2)#69 + 1000000 b(3,1,2,_0)#189
       - 1000000 x(3,1,2,_0)#190 >= -999980.3
 c231: s(1,3)#39 - s(3,3)#71 - 1000000 b(3,1,3,_0)#191
       - 1000000 x(3,1,3,_0)#192 >= -1999988.6
 c232: - s(1,3)#39 + s(3,3)#71 + 1000000 b(3,1,3,_0)#191
       - 1000000 x(3,1,3,_0)#192 >= -999985.5
 c233: s(2,0)#49 - s(3,0)#65 - 1000000 b(3,2,0,_0)#193
       - 1000000 x(3,2,0,_0)#194 >= -1999976.4
 c234: - s(2,0)#49 + s(3,0)#65 + 1000000 b(3,2,0,_0)#193
       - 1000000 x(3,2,0,_0)#194 >= -999979.9
 c235: s(2,1)#51 - s(3,1)#67 - 1000000 b(3,2,1,_0)#195
       - 1000000 x(3,2,1,_0)#196 >= -1999982.8
 c236: - s(2,1)#51 + s(3,1)#67 + 1000000 b(3,2,1,_0)#195
       - 1000000 x(3,2,1,_0)#196 >= -999990
 c237: s(2,2)#53 - s(3,2)#69 - 1000000 b(3,2,2,_0)#197
       - 1000000 x(3,2,2,_0)#198 >= -1999953.6
 c238: - s(2,2)#53 + s(3,2)#69 + 1000000 b(3,2,2,_0)#197
       - 1000000 x(3,2,2,_0)#198 >= -999968.1
 c239: s(2,3)#55 - s(3,3)#71 - 1000000 b(3,2,3,_0)#199
       - 1000000 x(3,2,3,_0)#200 >= -1999988.6
 c240: - s(2,3)#55 + s(3,3)#71 + 1000000 b(3,2,3,_0)#199
       - 1000000 x(3,2,3,_0)#200 >= -999966.6
 c241: - 1000000 b(3,3,0,_0)#201 - 1000000 x(3,3,0,_0)#202 >= -1999976.4
 c242: 1000000 b(3,3,0,_0)#201 - 1000000 x(3,3,0,_0)#202 >= -999976.4
 c243: - 1000000 b(3,3,1,_0)#203 - 1000000 x(3,3,1,_0)#204 >= -1999982.8
 c244: 1000000 b(3,3,1,_0)#203 - 1000000 x(3,3,1,_0)#204 >= -999982.8
 c245: - 1000000 b(3,3,2,_0)#205 - 1000000 x(3,3,2,_0)#206 >= -1999953.6
 c246: 1000000 b(3,3,2,_0)#205 - 1000000 x(3,3,2,_0)#206 >= -999953.6
 c247: - 1000000 b(3,3,3,_0)#207 - 1000000 x(3,3,3,_0)#208 >= -1999988.6
 c248: 1000000 b(3,3,3,_0)#207 - 1000000 x(3,3,3,_0)#208 >= -999988.6
 c249: - x(0,0,0)#1 + x(0,1,0,_0)#90 <= 0
 c250: - x(1,0,0)#5 + x(0,1,0,_0)#90 <= 0
 c251: - x(0,0,0)#1 - x(1,0,0)#5 + x(0,1,0,_0)#90 >= -1
 c252: - x(0,1,0)#2 + x(0,1,1,_0)#92 <= 0
 c253: - x(1,1,0)#6 + x(0,1,1,_0)#92 <= 0
 c254: - x(0,1,0)#2 - x(1,1,0)#6 + x(0,1,1,_0)#92 >= -1
 c255: - x(0,2,0)#3 + x(0,1,2,_0)#94 <= 0
 c256: - x(1,2,0)#7 + x(0,1,2,_0)#94 <= 0
 c257: - x(0,2,0)#3 - x(1,2,0)#7 + x(0,1,2,_0)#94 >= -1
 c258: - x(0,3,0)#4 + x(0,1,3,_0)#96 <= 0
 c259: - x(1,3,0)#8 + x(0,1,3,_0)#96 <= 0
 c260: - x(0,3,0)#4 - x(1,3,0)#8 + x(0,1,3,_0)#96 >= -1
 c261: - x(0,0,0)#1 + x(0,2,0,_0)#98 <= 0
 c262: - x(2,0,0)#9 + x(0,2,0,_0)#98 <= 0
 c263: - x(0,0,0)#1 - x(2,0,0)#9 + x(0,2,0,_0)#98 >= -1
 c264: - x(0,1,0)#2 + x(0,2,1,_0)#100 <= 0
 c265: - x(2,1,0)#10 + x(0,2,1,_0)#100 <= 0
 c266: - x(0,1,0)#2 - x(2,1,0)#10 + x(0,2,1,_0)#100 >= -1
 c267: - x(0,2,0)#3 + x(0,2,2,_0)#102 <= 0
 c268: - x(2,2,0)#11 + x(0,2,2,_0)#102 <= 0
 c269: - x(0,2,0)#3 - x(2,2,0)#11 + x(0,2,2,_0)#102 >= -1
 c270: - x(0,3,0)#4 + x(0,2,3,_0)#104 <= 0
 c271: - x(2,3,0)#12 + x(0,2,3,_0)#104 <= 0
 c272: - x(0,3,0)#4 - x(2,3,0)#12 + x(0,2,3,_0)#104 >= -1
 c273: - x(0,0,0)#1 + x(0,3,0,_0)#106 <= 0
 c274: - x(3,0,0)#13 + x(0,3,0,_0)#106 <= 0
 c275: - x(0,0,0)#1 - x(3,0,0)#13 + x(0,3,0,_0)#106 >= -1
 c276: - x(0,1,0)#2 + x(0,3,1,_0)#108 <= 0
 c277: - x(3,1,0)#14 + x(0,3,1,_0)#108 <= 0
 c278: - x(0,1,0)#2 - x(3,1,0)#14 + x(0,3,1,_0)#108 >= -1
 c279: - x(0,2,0)#3 + x(0,3,2,_0)#110 <= 0
 c280: - x(3,2,0)#15 + x(0,3,2,_0)#110 <= 0
 c281: - x(0,2,0)#3 - x(3,2,0)#15 + x(0,3,2,_0)#110 >= -1
 c282: - x(0,3,0)#4 + x(0,3,3,_0)#112 <= 0
 c283: - x(3,3,0)#16 + x(0,3,3,_0)#112 <= 0
 c284: - x(0,3,0)#4 - x(3,3,0)#16 + x(0,3,3,_0)#112 >= -1
 c285: - x(1,0,0)#5 + x(1,0,0,_0)#114 <= 0
 c286: - x(0,0,0)#1 + x(1,0,0,_0)#114 <= 0
 c287: - x(0,0,0)#1 - x(1,0,0)#5 + x(1,0,0,_0)#114 >= -1
 c288: - x(1,1,0)#6 + x(1,0,1,_0)#116 <= 0
 c289: - x(0,1,0)#2 + x(1,0,1,_0)#116 <= 0
 c290: - x(0,1,0)#2 - x(1,1,0)#6 + x(1,0,1,_0)#116 >= -1
 c291: - x(1,2,0)#7 + x(1,0,2,_0)#118 <= 0
 c292: - x(0,2,0)#3 + x(1,0,2,_0)#118 <= 0
 c293: - x(0,2,0)#3 - x(1,2,0)#7 + x(1,0,2,_0)#118 >= -1
 c294: - x(1,3,0)#8 + x(1,0,3,_0)#120 <= 0
 c295: - x(0,3,0)#4 + x(1,0,3,_0)#120 <= 0
 c296: - x(0,3,0)#4 - x(1,3,0)#8 + x(1,0,3,_0)#120 >= -1
 c297: - x(1,0,0)#5 + x(1,2,0,_0)#130 <= 0
 c298: - x(2,0,0)#9 + x(1,2,0,_0)#130 <= 0
 c299: - x(1,0,0)#5 - x(2,0,0)#9 + x(1,2,0,_0)#130 >= -1
 c300: - x(1,1,0)#6 + x(1,2,1,_0)#132 <= 0
 c301: - x(2,1,0)#10 + x(1,2,1,_0)#132 <= 0
 c302: - x(1,1,0)#6 - x(2,1,0)#10 + x(1,2,1,_0)#132 >= -1
 c303: - x(1,2,0)#7 + x(1,2,2,_0)#134 <= 0
 c304: - x(2,2,0)#11 + x(1,2,2,_0)#134 <= 0
 c305: - x(1,2,0)#7 - x(2,2,0)#11 + x(1,2,2,_0)#134 >= -1
 c306: - x(1,3,0)#8 + x(1,2,3,_0)#136 <= 0
 c307: - x(2,3,0)#12 + x(1,2,3,_0)#136 <= 0
 c308: - x(1,3,0)#8 - x(2,3,0)#12 + x(1,2,3,_0)#136 >= -1
 c309: - x(1,0,0)#5 + x(1,3,0,_0)#138 <= 0
 c310: - x(3,0,0)#13 + x(1,3,0,_0)#138 <= 0
 c311: - x(1,0,0)#5 - x(3,0,0)#13 + x(1,3,0,_0)#138 >= -1
 c312: - x(1,1,0)#6 + x(1,3,1,_0)#140 <= 0
 c313: - x(3,1,0)#14 + x(1,3,1,_0)#140 <= 0
 c314: - x(1,1,0)#6 - x(3,1,0)#14 + x(1,3,1,_0)#140 >= -1
 c315: - x(1,2,0)#7 + x(1,3,2,_0)#142 <= 0
 c316: - x(3,2,0)#15 + x(1,3,2,_0)#142 <= 0
 c317: - x(1,2,0)#7 - x(3,2,0)#15 + x(1,3,2,_0)#142 >= -1
 c318: - x(1,3,0)#8 + x(1,3,3,_0)#144 <= 0
 c319: - x(3,3,0)#16 + x(1,3,3,_0)#144 <= 0
 c320: - x(1,3,0)#8 - x(3,3,0)#16 + x(1,3,3,_0)#144 >= -1
 c321: - x(2,0,0)#9 + x(2,0,0,_0)#146 <= 0
 c322: - x(0,0,0)#1 + x(2,0,0,_0)#146 <= 0
 c323: - x(0,0,0)#1 - x(2,0,0)#9 + x(2,0,0,_0)#146 >= -1
 c324: - x(2,1,0)#10 + x(2,0,1,_0)#148 <= 0
 c325: - x(0,1,0)#2 + x(2,0,1,_0)#148 <= 0
 c326: - x(0,1,0)#2 - x(2,1,0)#10 + x(2,0,1,_0)#148 >= -1
 c327: - x(2,2,0)#11 + x(2,0,2,_0)#150 <= 0
 c328: - x(0,2,0)#3 + x(2,0,2,_0)#150 <= 0
 c329: - x(0,2,0)#3 - x(2,2,0)#11 + x(2,0,2,_0)#150 >= -1
 c330: - x(2,3,0)#12 + x(2,0,3,_0)#152 <= 0
 c331: - x(0,3,0)#4 + x(2,0,3,_0)#152 <= 0
 c332: - x(0,3,0)#4 - x(2,3,0)#12 + x(2,0,3,_0)#152 >= -1
 c333: - x(2,0,0)#9 + x(2,1,0,_0)#154 <= 0
 c334: - x(1,0,0)#5 + x(2,1,0,_0)#154 <= 0
 c335: - x(1,0,0)#5 - x(2,0,0)#9 + x(2,1,0,_0)#154 >= -1
 c336: - x(2,1,0)#10 + x(2,1,1,_0)#156 <= 0
 c337: - x(1,1,0)#6 + x(2,1,1,_0)#156 <= 0
 c338: - x(1,1,0)#6 - x(2,1,0)#10 + x(2,1,1,_0)#156 >= -1
 c339: - x(2,2,0)#11 + x(2,1,2,_0)#158 <= 0
 c340: - x(1,2,0)#7 + x(2,1,2,_0)#158 <= 0
 c341: - x(1,2,0)#7 - x(2,2,0)#11 + x(2,1,2,_0)#158 >= -1
 c342: - x(2,3,0)#12 + x(2,1,3,_0)#160 <= 0
 c343: - x(1,3,0)#8 + x(2,1,3,_0)#160 <= 0
 c344: - x(1,3,0)#8 - x(2,3,0)#12 + x(2,1,3,_0)#160 >= -1
 c345: - x(2,0,0)#9 + x(2,3,0,_0)#170 <= 0
 c346: - x(3,0,0)#13 + x(2,3,0,_0)#170 <= 0
 c347: - x(2,0,0)#9 - x(3,0,0)#13 + x(2,3,0,_0)#170 >= -1
 c348: - x(2,1,0)#10 + x(2,3,1,_0)#172 <= 0
 c349: - x(3,1,0)#14 + x(2,3,1,_0)#172 <= 0
 c350: - x(2,1,0)#10 - x(3,1,0)#14 + x(2,3,1,_0)#172 >= -1
 c351: - x(2,2,0)#11 + x(2,3,2,_0)#174 <= 0
 c352: - x(3,2,0)#15 + x(2,3,2,_0)#174 <= 0
 c353: - x(2,2,0)#11 - x(3,2,0)#15 + x(2,3,2,_0)#174 >= -1
 c354: - x(2,3,0)#12 + x(2,3,3,_0)#176 <= 0
 c355: - x(3,3,0)#16 + x(2,3,3,_0)#176 <= 0
 c356: - x(2,3,0)#12 - x(3,3,0)#16 + x(2,3,3,_0)#176 >= -1
 c357: - x(3,0,0)#13 + x(3,0,0,_0)#178 <= 0
 c358: - x(0,0,0)#1 + x(3,0,0,_0)#178 <= 0
 c359: - x(0,0,0)#1 - x(3,0,0)#13 + x(3,0,0,_0)#178 >= -1
 c360: - x(3,1,0)#14 + x(3,0,1,_0)#180 <= 0
 c361: - x(0,1,0)#2 + x(3,0,1,_0)#180 <= 0
 c362: - x(0,1,0)#2 - x(3,1,0)#14 + x(3,0,1,_0)#180 >= -1
 c363: - x(3,2,0)#15 + x(3,0,2,_0)#182 <= 0
 c364: - x(0,2,0)#3 + x(3,0,2,_0)#182 <= 0
 c365: - x(0,2,0)#3 - x(3,2,0)#15 + x(3,0,2,_0)#182 >= -1
 c366: - x(3,3,0)#16 + x(3,0,3,_0)#184 <= 0
 c367: - x(0,3,0)#4 + x(3,0,3,_0)#184 <= 0
 c368: - x(0,3,0)#4 - x(3,3,0)#16 + x(3,0,3,_0)#184 >= -1
 c369: - x(3,0,0)#13 + x(3,1,0,_0)#186 <= 0
 c370: - x(1,0,0)#5 + x(3,1,0,_0)#186 <= 0
 c371: - x(1,0,0)#5 - x(3,0,0)#13 + x(3,1,0,_0)#186 >= -1
 c372: - x(3,1,0)#14 + x(3,1,1,_0)#188 <= 0
 c373: - x(1,1,0)#6 + x(3,1,1,_0)#188 <= 0
 c374: - x(1,1,0)#6 - x(3,1,0)#14 + x(3,1,1,_0)#188 >= -1
 c375: - x(3,2,0)#15 + x(3,1,2,_0)#190 <= 0
 c376: - x(1,2,0)#7 + x(3,1,2,_0)#190 <= 0
 c377: - x(1,2,0)#7 - x(3,2,0)#15 + x(3,1,2,_0)#190 >= -1
 c378: - x(3,3,0)#16 + x(3,1,3,_0)#192 <= 0
 c379: - x(1,3,0)#8 + x(3,1,3,_0)#192 <= 0
 c380: - x(1,3,0)#8 - x(3,3,0)#16 + x(3,1,3,_0)#192 >= -1
 c381: - x(3,0,0)#13 + x(3,2,0,_0)#194 <= 0
 c382: - x(2,0,0)#9 + x(3,2,0,_0)#194 <= 0
 c383: - x(2,0,0)#9 - x(3,0,0)#13 + x(3,2,0,_0)#194 >= -1
 c384: - x(3,1,0)#14 + x(3,2,1,_0)#196 <= 0
 c385: - x(2,1,0)#10 + x(3,2,1,_0)#196 <= 0
 c386: - x(2,1,0)#10 - x(3,1,0)#14 + x(3,2,1,_0)#196 >= -1
 c387: - x(3,2,0)#15 + x(3,2,2,_0)#198 <= 0
 c388: - x(2,2,0)#11 + x(3,2,2,_0)#198 <= 0
 c389: - x(2,2,0)#11 - x(3,2,0)#15 + x(3,2,2,_0)#198 >= -1
 c390: - x(3,3,0)#16 + x(3,2,3,_0)#200 <= 0
 c391: - x(2,3,0)#12 + x(3,2,3,_0)#200 <= 0
 c392: - x(2,3,0)#12 - x(3,3,0)#16 + x(3,2,3,_0)#200 >= -1
 c393: x1#0 - s(0,0)#17 >= 30.9
 c394: x1#0 - s(0,1)#19 >= 35.4
 c395: x1#0 - s(0,2)#21 >= 1
 c396: x1#0 - s(0,3)#23 >= 30.7
 c397: x1#0 - s(1,0)#33 >= 25.4
 c398: x1#0 - s(1,1)#35 >= 35.7
 c399: x1#0 - s(1,2)#37 >= 19.7
 c400: x1#0 - s(1,3)#39 >= 14.5
 c401: x1#0 - s(2,0)#49 >= 20.1
 c402: x1#0 - s(2,1)#51 >= 10
 c403: x1#0 - s(2,2)#53 >= 31.9
 c404: x1#0 - s(2,3)#55 >= 33.4
 c405: x1#0 - s(3,0)#65 >= 23.6
 c406: x1#0 - s(3,1)#67 >= 17.2
 c407: x1#0 - s(3,2)#69 >= 46.4
 c408: x1#0 - s(3,3)#71 >= 11.4
Bounds
 0 <= x1#0 <= 100000
 0 <= x(0,0,0)#1 <= 1
 0 <= x(0,1,0)#2 <= 1
 0 <= x(0,2,0)#3 <= 1
 0 <= x(0,3,0)#4 <= 1
 0 <= x(1,0,0)#5 <= 1
 0 <= x(1,1,0)#6 <= 1
 0 <= x(1,2,0)#7 <= 1
 0 <= x(1,3,0)#8 <= 1
 0 <= x(2,0,0)#9 <= 1
 0 <= x(2,1,0)#10 <= 1
 0 <= x(2,2,0)#11 <= 1
 0 <= x(2,3,0)#12 <= 1
 0 <= x(3,0,0)#13 <= 1
 0 <= x(3,1,0)#14 <= 1
 0 <= x(3,2,0)#15 <= 1
 0 <= x(3,3,0)#16 <= 1
 0 <= s(0,0)#17 <= 100000
 0 <= a(0,0,1)#18 <= 1
 0 <= s(0,1)#19 <= 100000
 0 <= a(0,0,2)#20 <= 1
 0 <= s(0,2)#21 <= 100000
 0 <= a(0,0,3)#22 <= 1
 0 <= s(0,3)#23 <= 100000
 0 <= a(0,1,0)#24 <= 1
 0 <= a(0,1,2)#25 <= 1
 0 <= a(0,1,3)#26 <= 1
 0 <= a(0,2,0)#27 <= 1
 0 <= a(0,2,1)#28 <= 1
 0 <= a(0,2,3)#29 <= 1
 0 <= a(0,3,0)#30 <= 1
 0 <= a(0,3,1)#31 <= 1
 0 <= a(0,3,2)#32 <= 1
 0 <= s(1,0)#33 <= 100000
 0 <= a(1,0,1)#34 <= 1
 0 <= s(1,1)#35 <= 100000
 0 <= a(1,0,2)#36 <= 1
 0 <= s(1,2)#37 <= 100000
 0 <= a(1,0,3)#38 <= 1
 0 <= s(1,3)#39 <= 100000
 0 <= a(1,1,0)#40 <= 1
 0 <= a(1,1,2)#41 <= 1
 0 <= a(1,1,3)#42 <= 1
 0 <= a(1,2,0)#43 <= 1
 0 <= a(1,2,1)#44 <= 1
 0 <= a(1,2,3)#45 <= 1
 0 <= a(1,3,0)#46 <= 1
 0 <= a(1,3,1)#47 <= 1
 0 <= a(1,3,2)#48 <= 1
 0 <= s(2,0)#49 <= 100000
 0 <= a(2,0,1)#50 <= 1
 0 <= s(2,1)#51 <= 100000
 0 <= a(2,0,2)#52 <= 1
 0 <= s(2,2)#53 <= 100000
 0 <= a(2,0,3)#54 <= 1
 0 <= s(2,3)#55 <= 100000
 0 <= a(2,1,0)#56 <= 1
 0 <= a(2,1,2)#57 <= 1
 0 <= a(2,1,3)#58 <= 1
 0 <= a(2,2,0)#59 <= 1
 0 <= a(2,2,1)#60 <= 1
 0 <= a(2,2,3)#61 <= 1
 0 <= a(2,3,0)#62 <= 1
 0 <= a(2,3,1)#63 <= 1
 0 <= a(2,3,2)#64 <= 1
 0 <= s(3,0)#65 <= 100000
 0 <= a(3,0,1)#66 <= 1
 0 <= s(3,1)#67 <= 100000
 0 <= a(3,0,2)#68 <= 1
 0 <= s(3,2)#69 <= 100000
 0 <= a(3,0,3)#70 <= 1
 0 <= s(3,3)#71 <= 100000
 0 <= a(3,1,0)#72 <= 1
 0 <= a(3,1,2)#73 <= 1
 0 <= a(3,1,3)#74 <= 1
 0 <= a(3,2,0)#75 <= 1
 0 <= a(3,2,1)#76 <= 1
 0 <= a(3,2,3)#77 <= 1
 0 <= a(3,3,0)#78 <= 1
 0 <= a(3,3,1)#79 <= 1
 0 <= a(3,3,2)#80 <= 1
 0 <= b(0,0,0,_0)#81 <= 1
 0 <= x(0,0,0,_0)#82 <= 1
 0 <= b(0,0,1,_0)#83 <= 1
 0 <= x(0,0,1,_0)#84 <= 1
 0 <= b(0,0,2,_0)#85 <= 1
 0 <= x(0,0,2,_0)#86 <= 1
 0 <= b(0,0,3,_0)#87 <= 1
 0 <= x(0,0,3,_0)#88 <= 1
 0 <= b(0,1,0,_0)#89 <= 1
 0 <= x(0,1,0,_0)#90 <= 1
 0 <= b(0,1,1,_0)#91 <= 1
 0 <= x(0,1,1,_0)#92 <= 1
 0 <= b(0,1,2,_0)#93 <= 1
 0 <= x(0,1,2,_0)#94 <= 1
 0 <= b(0,1,3,_0)#95 <= 1
 0 <= x(0,1,3,_0)#96 <= 1
 0 <= b(0,2,0,_0)#97 <= 1
 0 <= x(0,2,0,_0)#98 <= 1
 0 <= b(0,2,1,_0)#99 <= 1
 0 <= x(0,2,1,_0)#100 <= 1
 0 <= b(0,2,2,_0)#101 <= 1
 0 <= x(0,2,2,_0)#102 <= 1
 0 <= b(0,2,3,_0)#103 <= 1
 0 <= x(0,2,3,_0)#104 <= 1
 0 <= b(0,3,0,_0)#105 <= 1
 0 <= x(0,3,0,_0)#106 <= 1
 0 <= b(0,3,1,_0)#107 <= 1
 0 <= x(0,3,1,_0)#108 <= 1
 0 <= b(0,3,2,_0)#109 <= 1
 0 <= x(0,3,2,_0)#110 <= 1
 0 <= b(0,3,3,_0)#111 <= 1
 0 <= x(0,3,3,_0)#112 <= 1
 0 <= b(1,0,0,_0)#113 <= 1
 0 <= x(1,0,0,_0)#114 <= 1
 0 <= b(1,0,1,_0)#115 <= 1
 0 <= x(1,0,1,_0)#116 <= 1
 0 <= b(1,0,2,_0)#117 <= 1
 0 <= x(1,0,2,_0)#118 <= 1
 0 <= b(1,0,3,_0)#119 <= 1
 0 <= x(1,0,3,_0)#120 <= 1
 0 <= b(1,1,0,_0)#121 <= 1
 0 <= x(1,1,0,_0)#122 <= 1
 0 <= b(1,1,1,_0)#123 <= 1
 0 <= x(1,1,1,_0)#124 <= 1
 0 <= b(1,1,2,_0)#125 <= 1
 0 <= x(1,1,2,_0)#126 <= 1
 0 <= b(1,1,3,_0)#127 <= 1
 0 <= x(1,1,3,_0)#128 <= 1
 0 <= b(1,2,0,_0)#129 <= 1
 0 <= x(1,2,0,_0)#130 <= 1
 0 <= b(1,2,1,_0)#131 <= 1
 0 <= x(1,2,1,_0)#132 <= 1
 0 <= b(1,2,2,_0)#133 <= 1
 0 <= x(1,2,2,_0)#134 <= 1
 0 <= b(1,2,3,_0)#135 <= 1
 0 <= x(1,2,3,_0)#136 <= 1
 0 <= b(1,3,0,_0)#137 <= 1
 0 <= x(1,3,0,_0)#138 <= 1
 0 <= b(1,3,1,_0)#139 <= 1
 0 <= x(1,3,1,_0)#140 <= 1
 0 <= b(1,3,2,_0)#141 <= 1
 0 <= x(1,3,2,_0)#142 <= 1
 0 <= b(1,3,3,_0)#143 <= 1
 0 <= x(1,3,3,_0)#144 <= 1
 0 <= b(2,0,0,_0)#145 <= 1
 0 <= x(2,0,0,_0)#146 <= 1
 0 <= b(2,0,1,_0)#147 <= 1
 0 <= x(2,0,1,_0)#148 <= 1
 0 <= b(2,0,2,_0)#149 <= 1
 0 <= x(2,0,2,_0)#150 <= 1
 0 <= b(2,0,3,_0)#151 <= 1
 0 <= x(2,0,3,_0)#152 <= 1
 0 <= b(2,1,0,_0)#153 <= 1
 0 <= x(2,1,0,_0)#154 <= 1
 0 <= b(2,1,1,_0)#155 <= 1
 0 <= x(2,1,1,_0)#156 <= 1
 0 <= b(2,1,2,_0)#157 <= 1
 0 <= x(2,1,2,_0)#158 <= 1
 0 <= b(2,1,3,_0)#159 <= 1
 0 <= x(2,1,3,_0)#160 <= 1
 0 <= b(2,2,0,_0)#161 <= 1
 0 <= x(2,2,0,_0)#162 <= 1
 0 <= b(2,2,1,_0)#163 <= 1
 0 <= x(2,2,1,_0)#164 <= 1
 0 <= b(2,2,2,_0)#165 <= 1
 0 <= x(2,2,2,_0)#166 <= 1
 0 <= b(2,2,3,_0)#167 <= 1
 0 <= x(2,2,3,_0)#168 <= 1
 0 <= b(2,3,0,_0)#169 <= 1
 0 <= x(2,3,0,_0)#170 <= 1
 0 <= b(2,3,1,_0)#171 <= 1
 0 <= x(2,3,1,_0)#172 <= 1
 0 <= b(2,3,2,_0)#173 <= 1
 0 <= x(2,3,2,_0)#174 <= 1
 0 <= b(2,3,3,_0)#175 <= 1
 0 <= x(2,3,3,_0)#176 <= 1
 0 <= b(3,0,0,_0)#177 <= 1
 0 <= x(3,0,0,_0)#178 <= 1
 0 <= b(3,0,1,_0)#179 <= 1
 0 <= x(3,0,1,_0)#180 <= 1
 0 <= b(3,0,2,_0)#181 <= 1
 0 <= x(3,0,2,_0)#182 <= 1
 0 <= b(3,0,3,_0)#183 <= 1
 0 <= x(3,0,3,_0)#184 <= 1
 0 <= b(3,1,0,_0)#185 <= 1
 0 <= x(3,1,0,_0)#186 <= 1
 0 <= b(3,1,1,_0)#187 <= 1
 0 <= x(3,1,1,_0)#188 <= 1
 0 <= b(3,1,2,_0)#189 <= 1
 0 <= x(3,1,2,_0)#190 <= 1
 0 <= b(3,1,3,_0)#191 <= 1
 0 <= x(3,1,3,_0)#192 <= 1
 0 <= b(3,2,0,_0)#193 <= 1
 0 <= x(3,2,0,_0)#194 <= 1
 0 <= b(3,2,1,_0)#195 <= 1
 0 <= x(3,2,1,_0)#196 <= 1
 0 <= b(3,2,2,_0)#197 <= 1
 0 <= x(3,2,2,_0)#198 <= 1
 0 <= b(3,2,3,_0)#199 <= 1
 0 <= x(3,2,3,_0)#200 <= 1
 0 <= b(3,3,0,_0)#201 <= 1
 0 <= x(3,3,0,_0)#202 <= 1
 0 <= b(3,3,1,_0)#203 <= 1
 0 <= x(3,3,1,_0)#204 <= 1
 0 <= b(3,3,2,_0)#205 <= 1
 0 <= x(3,3,2,_0)#206 <= 1
 0 <= b(3,3,3,_0)#207 <= 1
 0 <= x(3,3,3,_0)#208 <= 1
Binaries
 x(0,0,0)#1  x(0,1,0)#2  x(0,2,0)#3  x(0,3,0)#4  x(1,0,0)#5  x(1,1,0)#6 
 x(1,2,0)#7  x(1,3,0)#8  x(2,0,0)#9  x(2,1,0)#10  x(2,2,0)#11  x(2,3,0)#12 
 x(3,0,0)#13  x(3,1,0)#14  x(3,2,0)#15  x(3,3,0)#16  a(0,0,1)#18  a(0,0,2)#20 
 a(0,0,3)#22  a(0,1,0)#24  a(0,1,2)#25  a(0,1,3)#26  a(0,2,0)#27  a(0,2,1)#28 
 a(0,2,3)#29  a(0,3,0)#30  a(0,3,1)#31  a(0,3,2)#32  a(1,0,1)#34  a(1,0,2)#36 
 a(1,0,3)#38  a(1,1,0)#40  a(1,1,2)#41  a(1,1,3)#42  a(1,2,0)#43  a(1,2,1)#44 
 a(1,2,3)#45  a(1,3,0)#46  a(1,3,1)#47  a(1,3,2)#48  a(2,0,1)#50  a(2,0,2)#52 
 a(2,0,3)#54  a(2,1,0)#56  a(2,1,2)#57  a(2,1,3)#58  a(2,2,0)#59  a(2,2,1)#60 
 a(2,2,3)#61  a(2,3,0)#62  a(2,3,1)#63  a(2,3,2)#64  a(3,0,1)#66  a(3,0,2)#68 
 a(3,0,3)#70  a(3,1,0)#72  a(3,1,2)#73  a(3,1,3)#74  a(3,2,0)#75  a(3,2,1)#76 
 a(3,2,3)#77  a(3,3,0)#78  a(3,3,1)#79  a(3,3,2)#80  b(0,0,0,_0)#81 
 x(0,0,0,_0)#82  b(0,0,1,_0)#83  x(0,0,1,_0)#84  b(0,0,2,_0)#85 
 x(0,0,2,_0)#86  b(0,0,3,_0)#87  x(0,0,3,_0)#88  b(0,1,0,_0)#89 
 x(0,1,0,_0)#90  b(0,1,1,_0)#91  x(0,1,1,_0)#92  b(0,1,2,_0)#93 
 x(0,1,2,_0)#94  b(0,1,3,_0)#95  x(0,1,3,_0)#96  b(0,2,0,_0)#97 
 x(0,2,0,_0)#98  b(0,2,1,_0)#99  x(0,2,1,_0)#100  b(0,2,2,_0)#101 
 x(0,2,2,_0)#102  b(0,2,3,_0)#103  x(0,2,3,_0)#104  b(0,3,0,_0)#105 
 x(0,3,0,_0)#106  b(0,3,1,_0)#107  x(0,3,1,_0)#108  b(0,3,2,_0)#109 
 x(0,3,2,_0)#110  b(0,3,3,_0)#111  x(0,3,3,_0)#112  b(1,0,0,_0)#113 
 x(1,0,0,_0)#114  b(1,0,1,_0)#115  x(1,0,1,_0)#116  b(1,0,2,_0)#117 
 x(1,0,2,_0)#118  b(1,0,3,_0)#119  x(1,0,3,_0)#120  b(1,1,0,_0)#121 
 x(1,1,0,_0)#122  b(1,1,1,_0)#123  x(1,1,1,_0)#124  b(1,1,2,_0)#125 
 x(1,1,2,_0)#126  b(1,1,3,_0)#127  x(1,1,3,_0)#128  b(1,2,0,_0)#129 
 x(1,2,0,_0)#130  b(1,2,1,_0)#131  x(1,2,1,_0)#132  b(1,2,2,_0)#133 
 x(1,2,2,_0)#134  b(1,2,3,_0)#135  x(1,2,3,_0)#136  b(1,3,0,_0)#137 
 x(1,3,0,_0)#138  b(1,3,1,_0)#139  x(1,3,1,_0)#140  b(1,3,2,_0)#141 
 x(1,3,2,_0)#142  b(1,3,3,_0)#143  x(1,3,3,_0)#144  b(2,0,0,_0)#145 
 x(2,0,0,_0)#146  b(2,0,1,_0)#147  x(2,0,1,_0)#148  b(2,0,2,_0)#149 
 x(2,0,2,_0)#150  b(2,0,3,_0)#151  x(2,0,3,_0)#152  b(2,1,0,_0)#153 
 x(2,1,0,_0)#154  b(2,1,1,_0)#155  x(2,1,1,_0)#156  b(2,1,2,_0)#157 
 x(2,1,2,_0)#158  b(2,1,3,_0)#159  x(2,1,3,_0)#160  b(2,2,0,_0)#161 
 x(2,2,0,_0)#162  b(2,2,1,_0)#163  x(2,2,1,_0)#164  b(2,2,2,_0)#165 
 x(2,2,2,_0)#166  b(2,2,3,_0)#167  x(2,2,3,_0)#168  b(2,3,0,_0)#169 
 x(2,3,0,_0)#170  b(2,3,1,_0)#171  x(2,3,1,_0)#172  b(2,3,2,_0)#173 
 x(2,3,2,_0)#174  b(2,3,3,_0)#175  x(2,3,3,_0)#176  b(3,0,0,_0)#177 
 x(3,0,0,_0)#178  b(3,0,1,_0)#179  x(3,0,1,_0)#180  b(3,0,2,_0)#181 
 x(3,0,2,_0)#182  b(3,0,3,_0)#183  x(3,0,3,_0)#184  b(3,1,0,_0)#185 
 x(3,1,0,_0)#186  b(3,1,1,_0)#187  x(3,1,1,_0)#188  b(3,1,2,_0)#189 
 x(3,1,2,_0)#190  b(3,1,3,_0)#191  x(3,1,3,_0)#192  b(3,2,0,_0)#193 
 x(3,2,0,_0)#194  b(3,2,1,_0)#195  x(3,2,1,_0)#196  b(3,2,2,_0)#197 
 x(3,2,2,_0)#198  b(3,2,3,_0)#199  x(3,2,3,_0)#200  b(3,3,0,_0)#201 
 x(3,3,0,_0)#202  b(3,3,1,_0)#203  x(3,3,1,_0)#204  b(3,3,2,_0)#205 
 x(3,3,2,_0)#206  b(3,3,3,_0)#207  x(3,3,3,_0)#208 
Generals
 x1#0 
End
